5891.42
0 2 5 9 14 1 13 12 3 10 11 8 4 7 18 0
0 16 17 15 21 20 26 19 22 23 37 24 34 27 0
0 42 38 43 39 30 28 31 32 29 25 51 0
0 40 47 41 33 35 36 58 57 63 0
0 73 67 44 50 48 45 49 46 85 52 54 56 53 0
0 76 77 80 70 68 71 69 66 55 60 59 0
0 94 75 91 81 78 74 65 98 102 62 61 0
0 82 83 79 84 104 103 106 72 0
0 95 93 88 86 90 87 89 92 108 109 0
0 115 124 122 101 100 97 110 96 0
0 125 119 113 114 116 107 111 112 64 0
0 120 123 121 117 126 118 134 131 130 132 129 0
0 144 140 127 128 133 135 136 0
0 142 147 149 145 137 138 139 141 143 146 6 150 99 105 0
0 148 0
